(set-logic QF_S)
(declare-fun var0 () String)
(declare-fun var1 () Int)
(declare-fun var2 () Bool)
(declare-fun var3 () String)
(declare-fun var4 () Int)
(declare-fun var5 () Bool)
(declare-fun var6 () String)
(declare-fun var7 () Int)
(declare-fun var8 () Bool)
(assert (str.suffixof var0 var3))
(assert (str.prefixof (str.substr var3 var4 var4) (str.at (str.substr var6 var1 var1) (str.len "=#wOIH7vC="))))
(assert (> (str.len var6) (str.indexof "W[""H}2t/);" "6kbNd<@i!4" 4)))
(assert (str.contains (str.replace var0 var3 var3) (str.replace var0 var3 "bZfw+7`Nqw")))
(check-sat)